(declare-fun p0 () Real)
	(declare-fun p1 () Real)
	(assert (<= 0 p0 ))
	(assert (<= p0 1 ))
	(assert (<= 0 p1 ))
	(assert (<= p1 1 ))
	(assert (<= (/  1 2) (+ (* (/  1 2) p0) (* (- 1 (/  1 2)) p1))))
	(assert (<= 0 (+ (* 1 p0) (* (- 1 1) 0))))
	(assert (<= 1 (+ (* 1 p1) (* (- 1 1) 0))))
	(check-sat)